memory 28 Gb

molecule tetracene {
0 1
symmetry csz
    C            4.888883611380    -0.715374463486    -0.000000000000
    C            4.888883611380     0.715374463486     0.000000000000
    C           -4.888883611380    -0.715374463486     0.000000000000
    C           -4.888883611380     0.715374463486    -0.000000000000
    C            3.711144499602    -1.409316610825     0.000000000000
    C            3.711144499602     1.409316610825     0.000000000000
    C           -3.711144499602    -1.409316610825     0.000000000000
    C           -3.711144499602     1.409316610825     0.000000000000
    C            2.450542389320    -0.725895641808     0.000000000000
    C            2.450542389320     0.725895641808     0.000000000000
    C           -2.450542389320    -0.725895641808     0.000000000000
    C           -2.450542389320     0.725895641808     0.000000000000
    C            1.235393613403    -1.406341384439    -0.000000000000
    C            1.235393613403     1.406341384439    -0.000000000000
    C           -1.235393613403    -1.406341384439     0.000000000000
    C           -1.235393613403     1.406341384439    -0.000000000000
    C            0.000000000000    -0.726150477978     0.000000000000
    C           -0.000000000000     0.726150477978    -0.000000000000
    H           -5.836431028249     1.247257941939     0.000000000000
    H           -5.836431028249    -1.247257941939    -0.000000000000
    H            5.836431028249    -1.247257941939     0.000000000000
    H            5.836431028249     1.247257941939    -0.000000000000
    H            3.708923113951    -2.496817544333     0.000000000000
    H            3.708923113951     2.496817544333     0.000000000000
    H           -3.708923113951    -2.496817544333    -0.000000000000
    H           -3.708923113951     2.496817544333     0.000000000000
    H            1.235230564126    -2.494555353711     0.000000000000
    H            1.235230564126     2.494555353711     0.000000000000
    H           -1.235230564126     2.494555353711     0.000000000000
    H           -1.235230564126    -2.494555353711     0.000000000000
}

sys.path.insert( 0, './..' )
import fcidump

set basis 6-31g*
set reference rhf
set scf_type DIRECT
set e_convergence 1e-12
set d_convergence 1e-10
set ints_tolerance 0.0

set fcidump dumpfilename tetracene.fcidump

E, wfn = energy( 'fcidump', return_wfn=True )
molden( wfn, 'tetracene.molden' )

